\ This file has been generated by DOcplex
\ ENCODING=ISO-8859-1
\Problem name: random_problem.lp

Minimize
 obj: 568 x0 + 284 x1 + 142 x2 - 180 x3 - 90 x4 - 45 x5 + 84 x6 + 42 x7 + 21 x8
      - 1232 x9 - 616 x10 - 308 x11 - 508 x12 - 254 x13 - 127 x14 + 356 x15
      + 178 x16 + 89 x17 + [ 4416 x0^2 + 4416 x0*x1 + 2208 x0*x2 + 4864 x0*x3
      + 2432 x0*x4 + 1216 x0*x5 + 2432 x0*x6 + 1216 x0*x7 + 608 x0*x8
      + 4608 x0*x9 + 2304 x0*x10 + 1152 x0*x11 + 2368 x0*x12 + 1184 x0*x13
      + 592 x0*x14 + 7232 x0*x15 + 3616 x0*x16 + 1808 x0*x17 + 1104 x1^2
      + 1104 x1*x2 + 2432 x1*x3 + 1216 x1*x4 + 608 x1*x5 + 1216 x1*x6
      + 608 x1*x7 + 304 x1*x8 + 2304 x1*x9 + 1152 x1*x10 + 576 x1*x11
      + 1184 x1*x12 + 592 x1*x13 + 296 x1*x14 + 3616 x1*x15 + 1808 x1*x16
      + 904 x1*x17 + 276 x2^2 + 1216 x2*x3 + 608 x2*x4 + 304 x2*x5 + 608 x2*x6
      + 304 x2*x7 + 152 x2*x8 + 1152 x2*x9 + 576 x2*x10 + 288 x2*x11
      + 592 x2*x12 + 296 x2*x13 + 148 x2*x14 + 1808 x2*x15 + 904 x2*x16
      + 452 x2*x17 + 2656 x3^2 + 2656 x3*x4 + 1328 x3*x5 + 3072 x3*x6
      + 1536 x3*x7 + 768 x3*x8 + 3392 x3*x9 + 1696 x3*x10 + 848 x3*x11
      + 1664 x3*x12 + 832 x3*x13 + 416 x3*x14 + 3840 x3*x15 + 1920 x3*x16
      + 960 x3*x17 + 664 x4^2 + 664 x4*x5 + 1536 x4*x6 + 768 x4*x7 + 384 x4*x8
      + 1696 x4*x9 + 848 x4*x10 + 424 x4*x11 + 832 x4*x12 + 416 x4*x13
      + 208 x4*x14 + 1920 x4*x15 + 960 x4*x16 + 480 x4*x17 + 166 x5^2
      + 768 x5*x6 + 384 x5*x7 + 192 x5*x8 + 848 x5*x9 + 424 x5*x10 + 212 x5*x11
      + 416 x5*x12 + 208 x5*x13 + 104 x5*x14 + 960 x5*x15 + 480 x5*x16
      + 240 x5*x17 + 4576 x6^2 + 4576 x6*x7 + 2288 x6*x8 + 1792 x6*x9
      + 896 x6*x10 + 448 x6*x11 + 832 x6*x12 + 416 x6*x13 + 208 x6*x14
      + 1792 x6*x15 + 896 x6*x16 + 448 x6*x17 + 1144 x7^2 + 1144 x7*x8
      + 896 x7*x9 + 448 x7*x10 + 224 x7*x11 + 416 x7*x12 + 208 x7*x13
      + 104 x7*x14 + 896 x7*x15 + 448 x7*x16 + 224 x7*x17 + 286 x8^2 + 448 x8*x9
      + 224 x8*x10 + 112 x8*x11 + 208 x8*x12 + 104 x8*x13 + 52 x8*x14
      + 448 x8*x15 + 224 x8*x16 + 112 x8*x17 + 3968 x9^2 + 3968 x9*x10
      + 1984 x9*x11 + 2432 x9*x12 + 1216 x9*x13 + 608 x9*x14 + 4416 x9*x15
      + 2208 x9*x16 + 1104 x9*x17 + 992 x10^2 + 992 x10*x11 + 1216 x10*x12
      + 608 x10*x13 + 304 x10*x14 + 2208 x10*x15 + 1104 x10*x16 + 552 x10*x17
      + 248 x11^2 + 608 x11*x12 + 304 x11*x13 + 152 x11*x14 + 1104 x11*x15
      + 552 x11*x16 + 276 x11*x17 + 704 x12^2 + 704 x12*x13 + 352 x12*x14
      + 1920 x12*x15 + 960 x12*x16 + 480 x12*x17 + 176 x13^2 + 176 x13*x14
      + 960 x13*x15 + 480 x13*x16 + 240 x13*x17 + 44 x14^2 + 480 x14*x15
      + 240 x14*x16 + 120 x14*x17 + 4256 x15^2 + 4256 x15*x16 + 2128 x15*x17
      + 1064 x16^2 + 1064 x16*x17 + 266 x17^2 ]/2
Subject To
 c0: 4 x0 + 2 x1 + x2 + 4 x3 + 2 x4 + x5 + 4 x6 + 2 x7 + x8 + 4 x9 + 2 x10 + x11
     + 4 x12 + 2 x13 + x14 + 4 x15 + 2 x16 + x17 = 7

Bounds
 0 <= x0 <= 1
 0 <= x1 <= 1
 0 <= x2 <= 1
 0 <= x3 <= 1
 0 <= x4 <= 1
 0 <= x5 <= 1
 0 <= x6 <= 1
 0 <= x7 <= 1
 0 <= x8 <= 1
 0 <= x9 <= 1
 0 <= x10 <= 1
 0 <= x11 <= 1
 0 <= x12 <= 1
 0 <= x13 <= 1
 0 <= x14 <= 1
 0 <= x15 <= 1
 0 <= x16 <= 1
 0 <= x17 <= 1

Binaries
 x0 x1 x2 x3 x4 x5 x6 x7 x8 x9 x10 x11 x12 x13 x14 x15 x16 x17
End
